results/mps/Fattahi_setup_10.mps
NAME F-JSSP-SDST
ROWS
 N  OBJ
 E  c0      
 E  c1      
 E  c2      
 E  c3      
 E  c4      
 E  c5      
 E  c6      
 E  c7      
 E  c8      
 E  c9      
 E  c10     
 E  c11     
 L  c12     
 L  c13     
 L  c14     
 L  c15     
 L  c16     
 L  c17     
 L  c18     
 L  c19     
 L  c20     
 L  c21     
 L  c22     
 L  c23     
 L  c24     
 L  c25     
 L  c26     
 L  c27     
 L  c28     
 L  c29     
 L  c30     
 L  c31     
 G  c32     
 G  c33     
 G  c34     
 G  c35     
 G  c36     
 G  c37     
 G  c38     
 G  c39     
 G  c40     
 G  c41     
 G  c42     
 G  c43     
 G  c44     
 G  c45     
 G  c46     
 G  c47     
 G  c48     
 G  c49     
 G  c50     
 G  c51     
 G  c52     
 G  c53     
 G  c54     
 G  c55     
 G  c56     
 G  c57     
 G  c58     
 G  c59     
 G  c60     
 G  c61     
 G  c62     
 G  c63     
 G  c64     
 G  c65     
 G  c66     
 G  c67     
 G  c68     
 G  c69     
 G  c70     
 G  c71     
 G  c72     
 G  c73     
 G  c74     
 G  c75     
 G  c76     
 G  c77     
 G  c78     
 G  c79     
 G  c80     
 G  c81     
 G  c82     
 G  c83     
 G  c84     
 G  c85     
 G  c86     
 G  c87     
 G  c88     
 G  c89     
 G  c90     
 G  c91     
 G  c92     
 G  c93     
 G  c94     
 G  c95     
 G  c96     
 G  c97     
 G  c98     
 G  c99     
 G  c100    
 G  c101    
 G  c102    
 G  c103    
 G  c104    
 G  c105    
 G  c106    
 G  c107    
 G  c108    
 G  c109    
 G  c110    
 G  c111    
 G  c112    
 G  c113    
 G  c114    
 G  c115    
 G  c116    
 G  c117    
 E  c118    
COLUMNS
    MARKER    'MARKER'                 'INTORG'
    B0(10)    c0        1
    B0(10)    c12       -1000000000
    B0(10)    c32       -147
    B0(10)    c42       -1000000000
    B0(10)    c43       -1000000000
    B0(10)    c44       -1000000000
    B0(10)    c45       -1000000000
    B0(10)    c46       -1000000000
    B0(10)    c47       -1000000000
    B0(10)    c118      -147
    B1(9)     c1        1
    B1(9)     c13       -1000000000
    B1(9)     c33       -140
    B1(9)     c34       -1000000140
    B1(9)     c52       -1000000000
    B1(9)     c53       -1000000000
    B1(9)     c56       -1000000000
    B1(9)     c57       -1000000000
    B1(9)     c118      -140
    B2(11)    c1        1
    B2(11)    c14       -1000000000
    B2(11)    c33       -130
    B2(11)    c34       -130
    B2(11)    c48       -1000000000
    B2(11)    c49       -1000000000
    B2(11)    c50       -1000000000
    B2(11)    c51       -1000000000
    B2(11)    c54       -1000000000
    B2(11)    c55       -1000000000
    B2(11)    c118      -130
    B3(8)     c2        1
    B3(8)     c15       -1000000000
    B3(8)     c34       -1000000000
    B3(8)     c60       -1000000000
    B3(8)     c61       -1000000000
    B3(8)     c66       -1000000000
    B3(8)     c67       -1000000000
    B3(8)     c118      -150
    B4(9)     c2        1
    B4(9)     c16       -1000000000
    B4(9)     c58       -1000000000
    B4(9)     c59       -1000000000
    B4(9)     c62       -1000000000
    B4(9)     c63       -1000000000
    B4(9)     c64       -1000000000
    B4(9)     c65       -1000000000
    B4(9)     c118      -160
    B5(11)    c3        1
    B5(11)    c17       -1000000000
    B5(11)    c35       -214
    B5(11)    c36       -214
    B5(11)    c42       -1000000000
    B5(11)    c43       -1000000000
    B5(11)    c68       -1000000000
    B5(11)    c69       -1000000000
    B5(11)    c72       -1000000000
    B5(11)    c73       -1000000000
    B5(11)    c118      -214
    B6(9)     c3        1
    B6(9)     c18       -1000000000
    B6(9)     c35       -150
    B6(9)     c36       -1000000150
    B6(9)     c70       -1000000000
    B6(9)     c71       -1000000000
    B6(9)     c74       -1000000000
    B6(9)     c75       -1000000000
    B6(9)     c118      -150
    B7(9)     c4        1
    B7(9)     c19       -1000000000
    B7(9)     c36       -1000000000
    B7(9)     c37       -87
    B7(9)     c78       -1000000000
    B7(9)     c79       -1000000000
    B7(9)     c82       -1000000000
    B7(9)     c83       -1000000000
    B7(9)     c118      -87
    B8(10)    c4        1
    B8(10)    c20       -1000000000
    B8(10)    c37       -66
    B8(10)    c48       -1000000000
    B8(10)    c49       -1000000000
    B8(10)    c76       -1000000000
    B8(10)    c77       -1000000000
    B8(10)    c80       -1000000000
    B8(10)    c81       -1000000000
    B8(10)    c118      -66
    B9(9)     c5        1
    B9(9)     c21       -1000000000
    B9(9)     c58       -1000000000
    B9(9)     c59       -1000000000
    B9(9)     c84       -1000000000
    B9(9)     c85       -1000000000
    B9(9)     c86       -1000000000
    B9(9)     c87       -1000000000
    B9(9)     c118      -178
    B10(10)   c6        1
    B10(10)   c22       -1000000000
    B10(10)   c38       -87
    B10(10)   c44       -1000000000
    B10(10)   c45       -1000000000
    B10(10)   c68       -1000000000
    B10(10)   c69       -1000000000
    B10(10)   c88       -1000000000
    B10(10)   c89       -1000000000
    B10(10)   c118      -87
    B11(10)   c6        1
    B11(10)   c23       -1000000000
    B11(10)   c38       -62
    B11(10)   c50       -1000000000
    B11(10)   c51       -1000000000
    B11(10)   c76       -1000000000
    B11(10)   c77       -1000000000
    B11(10)   c90       -1000000000
    B11(10)   c91       -1000000000
    B11(10)   c118      -62
    B12(10)   c7        1
    B12(10)   c24       -1000000000
    B12(10)   c39       -180
    B12(10)   c70       -1000000000
    B12(10)   c71       -1000000000
    B12(10)   c78       -1000000000
    B12(10)   c79       -1000000000
    B12(10)   c92       -1000000000
    B12(10)   c93       -1000000000
    B12(10)   c118      -180
    B13(9)    c8        1
    B13(9)    c25       -1000000000
    B13(9)    c52       -1000000000
    B13(9)    c53       -1000000000
    B13(9)    c60       -1000000000
    B13(9)    c61       -1000000000
    B13(9)    c96       -1000000000
    B13(9)    c97       -1000000000
    B13(9)    c118      -190
    B14(9)    c8        1
    B14(9)    c26       -1000000000
    B14(9)    c62       -1000000000
    B14(9)    c63       -1000000000
    B14(9)    c84       -1000000000
    B14(9)    c85       -1000000000
    B14(9)    c94       -1000000000
    B14(9)    c95       -1000000000
    B14(9)    c118      -100
    B15(10)   c9        1
    B15(10)   c27       -1000000000
    B15(10)   c40       -87
    B15(10)   c46       -1000000000
    B15(10)   c47       -1000000000
    B15(10)   c72       -1000000000
    B15(10)   c73       -1000000000
    B15(10)   c88       -1000000000
    B15(10)   c89       -1000000000
    B15(10)   c118      -87
    B16(10)   c9        1
    B16(10)   c28       -1000000000
    B16(10)   c40       -65
    B16(10)   c54       -1000000000
    B16(10)   c55       -1000000000
    B16(10)   c80       -1000000000
    B16(10)   c81       -1000000000
    B16(10)   c90       -1000000000
    B16(10)   c91       -1000000000
    B16(10)   c118      -65
    B17(10)   c10       1
    B17(10)   c29       -1000000000
    B17(10)   c41       -173
    B17(10)   c64       -1000000000
    B17(10)   c65       -1000000000
    B17(10)   c86       -1000000000
    B17(10)   c87       -1000000000
    B17(10)   c94       -1000000000
    B17(10)   c95       -1000000000
    B17(10)   c118      -173
    B18(9)    c11       1
    B18(9)    c30       -1000000000
    B18(9)    c56       -1000000000
    B18(9)    c57       -1000000000
    B18(9)    c66       -1000000000
    B18(9)    c67       -1000000000
    B18(9)    c96       -1000000000
    B18(9)    c97       -1000000000
    B18(9)    c118      -145
    B19(9)    c11       1
    B19(9)    c31       -1000000000
    B19(9)    c74       -1000000000
    B19(9)    c75       -1000000000
    B19(9)    c82       -1000000000
    B19(9)    c83       -1000000000
    B19(9)    c92       -1000000000
    B19(9)    c93       -1000000000
    B19(9)    c118      -136
    B20(2)    c42       -1000000000
    B20(2)    c43       1000000000
    B21(2)    c44       -1000000000
    B21(2)    c45       1000000000
    B22(2)    c46       -1000000000
    B22(2)    c47       1000000000
    B23(2)    c48       -1000000000
    B23(2)    c49       1000000000
    B24(2)    c50       -1000000000
    B24(2)    c51       1000000000
    B25(2)    c52       -1000000000
    B25(2)    c53       1000000000
    B26(2)    c54       -1000000000
    B26(2)    c55       1000000000
    B27(2)    c56       -1000000000
    B27(2)    c57       1000000000
    B28(2)    c58       -1000000000
    B28(2)    c59       1000000000
    B29(2)    c60       -1000000000
    B29(2)    c61       1000000000
    B30(2)    c62       -1000000000
    B30(2)    c63       1000000000
    B31(2)    c64       -1000000000
    B31(2)    c65       1000000000
    B32(2)    c66       -1000000000
    B32(2)    c67       1000000000
    B33(2)    c68       -1000000000
    B33(2)    c69       1000000000
    B34(2)    c70       -1000000000
    B34(2)    c71       1000000000
    B35(2)    c72       -1000000000
    B35(2)    c73       1000000000
    B36(2)    c74       -1000000000
    B36(2)    c75       1000000000
    B37(2)    c76       -1000000000
    B37(2)    c77       1000000000
    B38(2)    c78       -1000000000
    B38(2)    c79       1000000000
    B39(2)    c80       -1000000000
    B39(2)    c81       1000000000
    B40(2)    c82       -1000000000
    B40(2)    c83       1000000000
    B41(2)    c84       -1000000000
    B41(2)    c85       1000000000
    B42(2)    c86       -1000000000
    B42(2)    c87       1000000000
    B43(2)    c88       -1000000000
    B43(2)    c89       1000000000
    B44(2)    c90       -1000000000
    B44(2)    c91       1000000000
    B45(2)    c92       -1000000000
    B45(2)    c93       1000000000
    B46(2)    c94       -1000000000
    B46(2)    c95       1000000000
    B47(2)    c96       -1000000000
    B47(2)    c97       1000000000
    MARKER    'MARKER'                 'INTEND'
    C48(10)   c12       1
    C48(10)   c32       -1
    C48(10)   c42       1
    C48(10)   c43       -1
    C48(10)   c44       1
    C48(10)   c45       -1
    C48(10)   c46       1
    C48(10)   c47       -1
    C48(10)   c98       1
    C48(10)   c118      -1
    C49(10)   c13       1
    C49(10)   c32       1
    C49(10)   c33       -1
    C49(10)   c34       -1
    C49(10)   c52       1
    C49(10)   c53       -1
    C49(10)   c56       1
    C49(10)   c57       -1
    C49(10)   c99       1
    C49(10)   c118      -1
    C50(12)   c14       1
    C50(12)   c32       1
    C50(12)   c33       -1
    C50(12)   c34       -1
    C50(12)   c48       1
    C50(12)   c49       -1
    C50(12)   c50       1
    C50(12)   c51       -1
    C50(12)   c54       1
    C50(12)   c55       -1
    C50(12)   c100      1
    C50(12)   c118      -1
    C51(9)    c15       1
    C51(9)    c33       1
    C51(9)    c34       1
    C51(9)    c60       1
    C51(9)    c61       -1
    C51(9)    c66       1
    C51(9)    c67       -1
    C51(9)    c101      1
    C51(9)    c118      -1
    C52(11)   c16       1
    C52(11)   c33       1
    C52(11)   c34       1
    C52(11)   c58       1
    C52(11)   c59       -1
    C52(11)   c62       1
    C52(11)   c63       -1
    C52(11)   c64       1
    C52(11)   c65       -1
    C52(11)   c102      1
    C52(11)   c118      -1
    C53(11)   c17       1
    C53(11)   c35       -1
    C53(11)   c36       -1
    C53(11)   c42       -1
    C53(11)   c43       1
    C53(11)   c68       1
    C53(11)   c69       -1
    C53(11)   c72       1
    C53(11)   c73       -1
    C53(11)   c103      1
    C53(11)   c118      -1
    C54(9)    c18       1
    C54(9)    c35       -1
    C54(9)    c36       -1
    C54(9)    c70       1
    C54(9)    c71       -1
    C54(9)    c74       1
    C54(9)    c75       -1
    C54(9)    c104      1
    C54(9)    c118      -1
    C55(10)   c19       1
    C55(10)   c35       1
    C55(10)   c36       1
    C55(10)   c37       -1
    C55(10)   c78       1
    C55(10)   c79       -1
    C55(10)   c82       1
    C55(10)   c83       -1
    C55(10)   c105      1
    C55(10)   c118      -1
    C56(12)   c20       1
    C56(12)   c35       1
    C56(12)   c36       1
    C56(12)   c37       -1
    C56(12)   c48       -1
    C56(12)   c49       1
    C56(12)   c76       1
    C56(12)   c77       -1
    C56(12)   c80       1
    C56(12)   c81       -1
    C56(12)   c106      1
    C56(12)   c118      -1
    C57(10)   c21       1
    C57(10)   c37       1
    C57(10)   c58       -1
    C57(10)   c59       1
    C57(10)   c84       1
    C57(10)   c85       -1
    C57(10)   c86       1
    C57(10)   c87       -1
    C57(10)   c107      1
    C57(10)   c118      -1
    C58(10)   c22       1
    C58(10)   c38       -1
    C58(10)   c44       -1
    C58(10)   c45       1
    C58(10)   c68       -1
    C58(10)   c69       1
    C58(10)   c88       1
    C58(10)   c89       -1
    C58(10)   c108      1
    C58(10)   c118      -1
    C59(10)   c23       1
    C59(10)   c38       -1
    C59(10)   c50       -1
    C59(10)   c51       1
    C59(10)   c76       -1
    C59(10)   c77       1
    C59(10)   c90       1
    C59(10)   c91       -1
    C59(10)   c109      1
    C59(10)   c118      -1
    C60(11)   c24       1
    C60(11)   c38       1
    C60(11)   c39       -1
    C60(11)   c70       -1
    C60(11)   c71       1
    C60(11)   c78       -1
    C60(11)   c79       1
    C60(11)   c92       1
    C60(11)   c93       -1
    C60(11)   c110      1
    C60(11)   c118      -1
    C61(10)   c25       1
    C61(10)   c39       1
    C61(10)   c52       -1
    C61(10)   c53       1
    C61(10)   c60       -1
    C61(10)   c61       1
    C61(10)   c96       1
    C61(10)   c97       -1
    C61(10)   c111      1
    C61(10)   c118      -1
    C62(10)   c26       1
    C62(10)   c39       1
    C62(10)   c62       -1
    C62(10)   c63       1
    C62(10)   c84       -1
    C62(10)   c85       1
    C62(10)   c94       1
    C62(10)   c95       -1
    C62(10)   c112      1
    C62(10)   c118      -1
    C63(10)   c27       1
    C63(10)   c40       -1
    C63(10)   c46       -1
    C63(10)   c47       1
    C63(10)   c72       -1
    C63(10)   c73       1
    C63(10)   c88       -1
    C63(10)   c89       1
    C63(10)   c113      1
    C63(10)   c118      -1
    C64(10)   c28       1
    C64(10)   c40       -1
    C64(10)   c54       -1
    C64(10)   c55       1
    C64(10)   c80       -1
    C64(10)   c81       1
    C64(10)   c90       -1
    C64(10)   c91       1
    C64(10)   c114      1
    C64(10)   c118      -1
    C65(11)   c29       1
    C65(11)   c40       1
    C65(11)   c41       -1
    C65(11)   c64       -1
    C65(11)   c65       1
    C65(11)   c86       -1
    C65(11)   c87       1
    C65(11)   c94       -1
    C65(11)   c95       1
    C65(11)   c115      1
    C65(11)   c118      -1
    C66(10)   c30       1
    C66(10)   c41       1
    C66(10)   c56       -1
    C66(10)   c57       1
    C66(10)   c66       -1
    C66(10)   c67       1
    C66(10)   c96       -1
    C66(10)   c97       1
    C66(10)   c116      1
    C66(10)   c118      -1
    C67(10)   c31       1
    C67(10)   c41       1
    C67(10)   c74       -1
    C67(10)   c75       1
    C67(10)   c82       -1
    C67(10)   c83       1
    C67(10)   c92       -1
    C67(10)   c93       1
    C67(10)   c117      1
    C67(10)   c118      -1
    C68(1)    OBJ       1
    C68(1)    c118      1
RHS
    RHS1      c0        1
    RHS1      c1        1
    RHS1      c2        1
    RHS1      c3        1
    RHS1      c4        1
    RHS1      c5        1
    RHS1      c6        1
    RHS1      c7        1
    RHS1      c8        1
    RHS1      c9        1
    RHS1      c10       1
    RHS1      c11       1
    RHS1      c34       -1999999989
    RHS1      c36       -1999999988
    RHS1      c42       -2999999770
    RHS1      c43       -1999999842
    RHS1      c44       -2999999899
    RHS1      c45       -1999999839
    RHS1      c46       -2999999897
    RHS1      c47       -1999999841
    RHS1      c48       -2999999921
    RHS1      c49       -1999999858
    RHS1      c50       -2999999923
    RHS1      c51       -1999999858
    RHS1      c52       -2999999797
    RHS1      c53       -1999999845
    RHS1      c54       -2999999921
    RHS1      c55       -1999999856
    RHS1      c56       -2999999843
    RHS1      c57       -1999999848
    RHS1      c58       -2999999810
    RHS1      c59       -1999999827
    RHS1      c60       -2999999794
    RHS1      c61       -1999999837
    RHS1      c62       -2999999887
    RHS1      c63       -1999999825
    RHS1      c64       -2999999814
    RHS1      c65       -1999999826
    RHS1      c66       -2999999842
    RHS1      c67       -1999999837
    RHS1      c68       -2999999900
    RHS1      c69       -1999999773
    RHS1      c70       -2999999807
    RHS1      c71       -1999999836
    RHS1      c72       -2999999899
    RHS1      c73       -1999999772
    RHS1      c74       -2999999854
    RHS1      c75       -1999999838
    RHS1      c76       -2999999925
    RHS1      c77       -1999999922
    RHS1      c78       -2999999806
    RHS1      c79       -1999999899
    RHS1      c80       -2999999924
    RHS1      c81       -1999999921
    RHS1      c82       -2999999851
    RHS1      c83       -1999999901
    RHS1      c84       -2999999889
    RHS1      c85       -1999999810
    RHS1      c86       -2999999814
    RHS1      c87       -1999999810
    RHS1      c88       -2999999900
    RHS1      c89       -1999999903
    RHS1      c90       -2999999923
    RHS1      c91       -1999999926
    RHS1      c92       -2999999852
    RHS1      c93       -1999999808
    RHS1      c94       -2999999815
    RHS1      c95       -1999999890
    RHS1      c96       -2999999841
    RHS1      c97       -1999999795
BOUNDS
 BV BND1      B0(10)  
 BV BND1      B1(9)   
 BV BND1      B2(11)  
 BV BND1      B3(8)   
 BV BND1      B4(9)   
 BV BND1      B5(11)  
 BV BND1      B6(9)   
 BV BND1      B7(9)   
 BV BND1      B8(10)  
 BV BND1      B9(9)   
 BV BND1      B10(10) 
 BV BND1      B11(10) 
 BV BND1      B12(10) 
 BV BND1      B13(9)  
 BV BND1      B14(9)  
 BV BND1      B15(10) 
 BV BND1      B16(10) 
 BV BND1      B17(10) 
 BV BND1      B18(9)  
 BV BND1      B19(9)  
 BV BND1      B20(2)  
 BV BND1      B21(2)  
 BV BND1      B22(2)  
 BV BND1      B23(2)  
 BV BND1      B24(2)  
 BV BND1      B25(2)  
 BV BND1      B26(2)  
 BV BND1      B27(2)  
 BV BND1      B28(2)  
 BV BND1      B29(2)  
 BV BND1      B30(2)  
 BV BND1      B31(2)  
 BV BND1      B32(2)  
 BV BND1      B33(2)  
 BV BND1      B34(2)  
 BV BND1      B35(2)  
 BV BND1      B36(2)  
 BV BND1      B37(2)  
 BV BND1      B38(2)  
 BV BND1      B39(2)  
 BV BND1      B40(2)  
 BV BND1      B41(2)  
 BV BND1      B42(2)  
 BV BND1      B43(2)  
 BV BND1      B44(2)  
 BV BND1      B45(2)  
 BV BND1      B46(2)  
 BV BND1      B47(2)  
ENDATA
