.old/.old_results_backup1/sol/Fattahi_setup_10.sol
# Solution for model F-JSSP-SDST
# Objective value = 3498
B0(10) 1
B1(9) 1
B2(11) 0
B3(8) 1
B4(9) 0
B5(11) 0
B6(9) 1
B7(9) 0
B8(10) 1
B9(9) 1
B10(10) 0
B11(10) 1
B12(10) 1
B13(9) 0
B14(9) 1
B15(10) 0
B16(10) 1
B17(10) 1
B18(9) 0
B19(9) 1
B20(2) 1
B21(2) 1
B22(2) 1
B23(2) 0
B24(2) 1
B25(2) 1
B26(2) 1
B27(2) 0
B28(2) 1
B29(2) 1
B30(2) 0
B31(2) 1
B32(2) 1
B33(2) 1
B34(2) 0
B35(2) 1
B36(2) 0
B37(2) 1
B38(2) 0
B39(2) 1
B40(2) 0
B41(2) 0
B42(2) 1
B43(2) 1
B44(2) 1
B45(2) 0
B46(2) 1
B47(2) 1
C48(10) 0
C49(10) 147
C50(12) 0
C51(9) 298
C52(11) 0
C53(11) 0
C54(9) 0
C55(10) 0
C56(12) 152
C57(10) 251
C58(10) 0
C59(10) 77
C60(11) 164
C61(10) 0
C62(10) 441
C63(10) 0
C64(10) 0
C65(11) 65
C66(10) 0
C67(10) 356
C68(1) 3498
